p tw 762 1472
1 719
1 720
2 349
2 350
2 543
2 544
2 644
2 645
3 660
3 661
4 738
4 739
5 675
5 676
6 301
6 302
6 756
6 757
7 662
7 663
8 377
8 378
8 477
8 478
8 550
8 551
9 278
9 279
9 489
9 490
9 503
9 504
9 562
9 563
10 588
10 589
11 364
11 365
11 504
11 505
11 573
11 574
12 463
12 464
13 640
13 641
14 613
14 614
14 666
14 667
14 727
14 728
15 629
15 630
15 685
15 686
16 387
16 388
16 693
16 694
17 279
17 280
17 505
17 506
17 574
17 575
18 280
18 281
19 409
19 410
20 328
20 329
20 516
20 517
20 625
20 626
21 294
21 295
21 486
21 487
21 559
21 560
22 371
22 372
23 379
23 380
23 683
23 684
24 300
24 301
24 599
24 600
24 711
24 712
25 450
25 451
26 276
26 277
27 426
27 427
28 298
28 299
28 598
28 599
29 669
29 670
29 728
29 729
30 339
30 340
30 533
30 534
31 299
31 300
32 323
32 324
33 701
33 702
34 212
34 471
35 653
35 654
36 429
36 430
36 742
36 743
37 456
37 457
38 671
38 672
39 345
39 346
40 402
40 403
41 668
41 669
42 691
42 692
43 448
43 449
44 452
44 453
45 436
45 437
45 637
45 638
46 700
46 701
46 752
46 753
47 282
47 283
48 655
48 656
49 342
49 343
49 476
49 477
49 536
49 537
49 549
49 550
50 435
50 436
51 395
51 396
51 706
51 707
52 696
52 697
53 283
53 284
54 277
54 278
54 502
54 503
54 572
54 573
55 410
55 411
56 103
56 350
56 351
56 716
57 375
57 376
57 681
57 682
58 361
58 362
58 723
58 724
59 378
59 379
59 475
59 476
59 548
59 549
60 708
60 709
61 273
61 274
61 565
61 566
62 384
62 385
62 522
62 523
62 590
62 591
63 385
63 386
63 744
63 745
64 346
64 347
64 759
64 760
65 679
65 680
66 362
66 363
66 658
66 659
67 667
67 668
68 577
68 578
69 440
69 441
70 327
70 328
71 80
71 373
71 374
71 490
71 563
72 401
72 402
73 388
73 389
73 526
73 527
74 758
74 759
75 397
75 398
76 630
76 631
76 686
76 687
77 687
77 688
78 417
78 418
78 620
78 621
79 312
79 313
80 390
80 391
80 490
80 563
80 750
80 751
81 284
81 285
82 699
82 700
83 398
83 399
84 678
84 679
85 365
85 366
85 457
85 458
85 726
85 727
86 411
86 412
86 485
86 486
86 501
86 502
86 558
86 559
87 439
87 440
87 757
87 758
88 434
88 435
89 334
89 335
89 525
89 526
89 633
89 634
90 103
90 762
91 676
91 677
92 414
92 415
93 370
93 371
93 484
93 485
93 556
93 557
93 580
93 581
94 657
94 658
95 320
95 321
95 508
95 509
95 614
95 615
96 412
96 413
96 661
96 662
97 297
97 298
97 478
97 479
97 537
97 538
97 551
97 552
97 597
97 598
98 356
98 357
99 697
99 698
100 408
100 409
100 606
100 607
100 650
100 651
100 718
100 719
101 405
101 406
101 601
101 602
101 713
101 714
101 760
101 761
102 695
102 696
102 747
102 748
103 132
103 351
103 352
103 545
103 645
103 646
103 716
103 762
104 400
104 401
104 600
104 601
104 712
104 713
104 755
104 756
105 396
105 397
105 538
105 539
105 596
105 597
106 446
106 447
107 444
107 445
108 462
108 463
109 430
109 431
109 694
109 695
110 746
110 747
111 470
111 471
112 698
112 699
112 749
112 750
113 460
113 461
114 413
114 414
114 616
114 617
115 467
115 468
116 677
116 678
117 307
117 308
118 437
118 438
118 539
118 540
118 709
118 710
119 358
119 359
119 479
119 480
119 495
119 496
119 552
119 553
119 569
119 570
120 287
120 288
120 488
120 489
120 513
120 514
120 561
120 562
121 326
121 327
121 732
121 733
122 741
122 742
123 369
123 370
124 359
124 360
124 497
124 498
124 571
124 572
125 592
125 593
126 453
126 454
127 427
127 428
128 469
128 470
129 332
129 333
130 313
130 314
130 481
130 482
130 554
130 555
131 639
131 640
132 208
132 353
132 354
132 545
132 646
133 322
133 323
134 305
134 306
135 352
135 353
136 428
136 429
137 393
137 394
137 532
137 533
137 705
137 706
138 386
138 387
139 459
139 460
139 731
139 732
140 714
140 715
141 455
141 456
141 659
141 660
142 721
142 722
143 285
143 286
143 510
143 511
143 579
143 580
144 374
144 375
144 736
144 737
145 722
145 723
146 407
146 408
146 605
146 606
147 315
147 316
147 610
147 611
148 420
148 421
148 511
148 512
148 621
148 622
149 288
149 289
149 584
149 585
150 316
150 317
150 500
150 501
151 272
151 273
151 491
151 492
151 564
151 565
152 578
152 579
153 431
153 432
154 392
154 393
154 704
154 705
155 319
155 320
155 612
155 613
156 730
156 731
157 304
157 305
157 541
157 542
157 602
157 603
158 443
158 444
158 717
158 718
159 451
159 452
159 748
159 749
160 314
160 315
160 499
160 500
160 609
160 610
161 583
161 584
161 684
161 685
162 737
162 738
163 449
163 450
164 389
164 390
164 528
164 529
164 593
164 594
165 464
165 465
165 619
165 620
165 733
165 734
166 702
166 703
167 336
167 337
168 360
168 361
169 275
169 276
169 494
169 495
169 567
169 568
170 568
170 569
170 651
170 652
171 363
171 364
172 289
172 290
172 520
172 521
172 586
172 587
173 663
173 664
174 631
174 632
175 672
175 673
176 335
176 336
176 483
176 484
176 524
176 525
176 557
176 558
177 324
177 325
178 290
178 291
178 521
178 522
179 274
179 275
179 493
179 494
179 566
179 567
180 293
180 294
180 523
180 524
180 591
180 592
181 442
181 443
182 348
182 349
182 542
182 543
182 642
182 643
183 432
183 433
184 649
184 650
185 317
185 318
185 611
185 612
186 665
186 666
186 725
186 726
187 354
187 355
188 656
188 657
189 344
189 345
189 540
189 541
189 638
189 639
190 466
190 467
191 380
191 381
191 445
191 446
191 585
191 586
192 376
192 377
192 474
192 475
192 518
192 519
192 547
192 548
192 582
192 583
193 295
193 296
193 529
193 530
193 594
193 595
194 296
194 297
194 534
194 535
195 603
195 604
196 421
196 422
196 514
196 515
196 623
196 624
197 372
197 373
197 468
197 469
197 735
197 736
198 403
198 404
199 674
199 675
200 710
200 711
201 654
201 655
202 310
202 311
203 318
203 319
203 664
203 665
204 330
204 331
205 627
205 628
206 458
206 459
207 333
207 334
207 632
207 633
207 690
207 691
207 743
207 744
208 214
208 441
208 646
209 425
209 426
210 366
210 367
210 506
210 507
210 575
210 576
211 302
211 303
212 471
213 308
213 309
213 604
213 605
214 441
214 544
214 545
214 643
214 644
215 281
215 282
215 507
215 508
215 576
215 577
216 465
216 466
217 341
217 342
217 707
217 708
218 355
218 356
218 492
218 493
218 647
218 648
219 715
219 716
220 381
220 382
220 688
220 689
220 740
220 741
221 291
221 292
222 724
222 725
223 368
223 369
223 729
223 730
224 703
224 704
224 751
224 752
225 753
225 754
226 321
226 322
226 615
226 616
227 447
227 448
228 382
228 383
229 422
229 423
229 515
229 516
229 624
229 625
230 306
230 307
231 415
231 416
231 509
231 510
231 617
231 618
232 406
232 407
233 454
233 455
234 570
234 571
235 424
235 425
235 519
235 520
235 628
235 629
236 587
236 588
236 739
236 740
237 338
237 339
237 472
237 473
237 531
237 532
238 418
238 419
239 331
239 332
239 682
239 683
240 309
240 310
240 496
240 497
240 608
240 609
241 404
241 405
241 482
241 483
241 555
241 556
242 438
242 439
243 329
243 330
243 680
243 681
244 607
244 608
245 416
245 417
245 670
245 671
246 391
246 392
247 367
247 368
248 419
248 420
248 512
248 513
248 734
248 735
249 423
249 424
249 517
249 518
249 626
249 627
250 343
250 344
250 754
250 755
251 394
251 395
251 535
251 536
251 595
251 596
252 347
252 348
252 641
252 642
253 357
253 358
254 673
254 674
255 433
255 434
255 530
255 531
255 635
255 636
256 622
256 623
257 383
257 384
258 337
258 338
258 487
258 488
258 527
258 528
258 560
258 561
258 634
258 635
259 340
259 341
260 461
260 462
261 652
261 653
261 720
261 721
262 325
262 326
262 618
262 619
263 311
263 312
263 480
263 481
263 498
263 499
263 553
263 554
264 292
264 293
264 589
264 590
264 692
264 693
264 745
264 746
265 399
265 400
266 648
266 649
267 473
267 474
267 546
267 547
268 286
268 287
268 581
268 582
269 303
269 304
269 761
269 762
270 689
270 690
271 636
271 637
272 273
273 274
274 275
275 276
276 277
277 278
278 279
279 280
280 281
281 282
282 283
283 284
284 285
285 286
286 287
287 288
288 289
289 290
290 291
291 292
292 293
293 294
294 295
295 296
296 297
297 298
298 299
299 300
300 301
301 302
302 303
303 304
304 305
305 306
306 307
307 308
308 309
309 310
310 311
311 312
312 313
313 314
314 315
315 316
316 317
317 318
318 319
319 320
320 321
321 322
322 323
323 324
324 325
325 326
326 327
327 328
328 329
329 330
330 331
331 332
332 333
333 334
334 335
335 336
336 337
337 338
338 339
339 340
340 341
341 342
342 343
343 344
344 345
345 346
346 347
347 348
348 349
349 350
350 351
351 352
352 353
353 354
354 355
355 356
356 357
357 358
358 359
359 360
360 361
361 362
362 363
363 364
364 365
365 366
366 367
367 368
368 369
369 370
370 371
371 372
372 373
373 374
374 375
375 376
376 377
377 378
378 379
379 380
380 381
381 382
382 383
383 384
384 385
385 386
386 387
387 388
388 389
389 390
390 391
391 392
392 393
393 394
394 395
395 396
396 397
397 398
398 399
399 400
400 401
401 402
402 403
403 404
404 405
405 406
406 407
407 408
408 409
409 410
410 411
411 412
412 413
413 414
414 415
415 416
416 417
417 418
418 419
419 420
420 421
421 422
422 423
423 424
424 425
425 426
426 427
427 428
428 429
429 430
430 431
431 432
432 433
433 434
434 435
435 436
436 437
437 438
438 439
439 440
440 441
442 443
443 444
444 445
445 446
446 447
447 448
448 449
449 450
450 451
451 452
452 453
453 454
454 455
455 456
456 457
457 458
458 459
459 460
460 461
461 462
462 463
463 464
464 465
465 466
466 467
467 468
468 469
469 470
470 471
472 473
473 474
474 475
475 476
476 477
477 478
478 479
479 480
480 481
481 482
482 483
483 484
484 485
485 486
486 487
487 488
488 489
489 490
491 492
492 493
493 494
494 495
495 496
496 497
497 498
498 499
499 500
500 501
501 502
502 503
503 504
504 505
505 506
506 507
507 508
508 509
509 510
510 511
511 512
512 513
513 514
514 515
515 516
516 517
517 518
518 519
519 520
520 521
521 522
522 523
523 524
524 525
525 526
526 527
527 528
528 529
529 530
530 531
531 532
532 533
533 534
534 535
535 536
536 537
537 538
538 539
539 540
540 541
541 542
542 543
543 544
544 545
546 547
547 548
548 549
549 550
550 551
551 552
552 553
553 554
554 555
555 556
556 557
557 558
558 559
559 560
560 561
561 562
562 563
564 565
565 566
566 567
567 568
568 569
569 570
570 571
571 572
572 573
573 574
574 575
575 576
576 577
577 578
578 579
579 580
580 581
581 582
582 583
583 584
584 585
585 586
586 587
587 588
588 589
589 590
590 591
591 592
592 593
593 594
594 595
595 596
596 597
597 598
598 599
599 600
600 601
601 602
602 603
603 604
604 605
605 606
606 607
607 608
608 609
609 610
610 611
611 612
612 613
613 614
614 615
615 616
616 617
617 618
618 619
619 620
620 621
621 622
622 623
623 624
624 625
625 626
626 627
627 628
628 629
629 630
630 631
631 632
632 633
633 634
634 635
635 636
636 637
637 638
638 639
639 640
640 641
641 642
642 643
643 644
644 645
645 646
647 648
648 649
649 650
650 651
651 652
652 653
653 654
654 655
655 656
656 657
657 658
658 659
659 660
660 661
661 662
662 663
663 664
664 665
665 666
666 667
667 668
668 669
669 670
670 671
671 672
672 673
673 674
674 675
675 676
676 677
677 678
678 679
679 680
680 681
681 682
682 683
683 684
684 685
685 686
686 687
687 688
688 689
689 690
690 691
691 692
692 693
693 694
694 695
695 696
696 697
697 698
698 699
699 700
700 701
701 702
702 703
703 704
704 705
705 706
706 707
707 708
708 709
709 710
710 711
711 712
712 713
713 714
714 715
715 716
717 718
718 719
719 720
720 721
721 722
722 723
723 724
724 725
725 726
726 727
727 728
728 729
729 730
730 731
731 732
732 733
733 734
734 735
735 736
736 737
737 738
738 739
739 740
740 741
741 742
742 743
743 744
744 745
745 746
746 747
747 748
748 749
749 750
750 751
751 752
752 753
753 754
754 755
755 756
756 757
757 758
758 759
759 760
760 761
761 762
